<number of tasks>
50

<cycle time>
1000

<order strength>
0.196


<task times>
1 329
2 418
3 419
4 547
5 499
6 622
7 547
8 569
9 458
10 644
11 557
12 356
13 522
14 424
15 525
16 420
17 418
18 295
19 472
20 380
21 466
22 488
23 432
24 456
25 597
26 317
27 863
28 450
29 518
30 477
31 462
32 707
33 406
34 671
35 486
36 406
37 618
38 467
39 386
40 437
41 410
42 674
43 590
44 546
45 500
46 453
47 355
48 544
49 369
50 629

<precedence relations>
1,5
2,6
3,7
3,8
3,9
3,12
4,10
4,11
4,37
5,13
6,14
7,15
8,16
9,17
9,36
10,18
10,36
12,19
13,22
14,21
15,22
16,24
17,20
18,23
18,25
18,27
19,26
20,30
21,31
22,28
22,37
22,44
23,29
26,32
26,49
28,34
29,35
30,33
31,36
32,36
32,37
32,38
32,39
33,40
34,43
35,41
36,42
38,45
39,44
40,47
41,47
42,46
43,49
44,50
45,48

<end>
